;; ===================== PROJECTED CANON (QE) =====================
;; Each clause below is entailed by Proj = ∃W.F over the canonical vocabulary.
;; Units appear first for clarity; OR-clauses (SAT-filtered) follow.
;; ==================================================================

;; Unit Bool constraints (entailed)
(assert (not patient_has_finding_of_infectious_disease_of_lung_inthepast3months))
(assert (not patient_has_finding_of_allergy_to_lidocaine_now))
(assert (not patient_is_undergoing_dialysis_procedure_now))
(assert (not patient_has_finding_of_kidney_disease_now))
(assert (not patient_has_diagnosis_of_human_immunodeficiency_virus_infection_now))
(assert (not patient_has_finding_of_congestive_heart_failure_inthehistory))
(assert (not patient_has_finding_of_myocardial_infarction_inthepast12months))
(assert (not patient_has_finding_of_preinfarction_syndrome_now))
(assert (not patient_can_undergo_bronchoscopy_now))
(assert (not patient_has_finding_of_respiratory_failure_now))
